Solver command line: ['C:\\gurobi911\\win64\\bin\\gurobi.bat']

Academic license - for non-commercial use only - expires 2021-06-04

Using license file C:\Users\Dell\gurobi.lic

Read LP format model from file C:\Users\Dell\AppData\Local\Temp\tmpxhfwtewu.pyomo.lp

Reading time = 0.40 seconds

x70087: 78845 rows, 52567 columns, 188483 nonzeros

Changed value of parameter timelimit to 1800.0

   Prev: inf  Min: 0.0  Max: inf  Default: inf

Changed value of parameter Presolve to 2

   Prev: -1  Min: -1  Max: 2  Default: -1

Changed value of parameter mipgap to 0.01

   Prev: 0.0001  Min: 0.0  Max: inf  Default: 0.0001

Gurobi Optimizer version 9.1.1 build v9.1.1rc0 (win64)

Thread count: 6 physical cores, 12 logical processors, using up to 12 threads

Optimize a model with 78845 rows, 52567 columns and 188483 nonzeros

Model fingerprint: 0xeb8036b6

Variable types: 43805 continuous, 8762 integer (8762 binary)

Coefficient statistics:

  Matrix range     [1e-03, 1e+08]

  Objective range  [2e-01, 2e+04]

  Bounds range     [1e+00, 2e+03]

  RHS range        [1e+00, 7e+00]

Presolve removed 10959 rows and 7812 columns

Presolve time: 3.17s

Presolved: 67886 rows, 44755 columns, 168618 nonzeros

Variable types: 35994 continuous, 8761 integer (8761 binary)



Deterministic concurrent LP optimizer: primal and dual simplex

Showing first log only...



Presolve removed 17521 rows and 8761 columns

Presolved: 50365 rows, 35994 columns, 133576 nonzeros





Root simplex log...



Iteration    Objective       Primal Inf.    Dual Inf.      Time

   23435    1.1361537e+05   0.000000e+00   9.980362e+04      5s

Concurrent spin time: 0.00s



Solved with dual simplex



Root relaxation: objective 1.096972e+05, 23856 iterations, 5.09 seconds



    Nodes    |    Current Node    |     Objective Bounds      |     Work

 Expl Unexpl |  Obj  Depth IntInf | Incumbent    BestBd   Gap | It/Node Time



     0     0 109697.174    0 4620          - 109697.174      -     -   13s

H    0     0                    123986.81561 109697.174  11.5%     -   16s

H    0     0                    123986.36407 109697.174  11.5%     -   17s

H    0     0                    123976.25545 109697.174  11.5%     -   21s

     0     0 112650.664    0 4281 123976.255 112650.664  9.14%     -   25s

     0     0 113468.092    0 3330 123976.255 113468.092  8.48%     -   30s

H    0     0                    123332.60466 113468.092  8.00%     -   42s

     0     0 122619.670    0 1282 123332.605 122619.670  0.58%     -   42s



Cutting planes:

  Gomory: 2

  Implied bound: 703

  MIR: 2975

  Flow cover: 8217

  Relax-and-lift: 331



Explored 1 nodes (55060 simplex iterations) in 42.57 seconds

Thread count was 12 (of 12 available processors)



Solution count 4: 123333 123976 123986 123987 



Optimal solution found (tolerance 1.00e-02)

Best objective 1.233326046579e+05, best bound 1.226196701208e+05, gap 0.5781%


